\* Problem: Ex2.4 *\

Maximize
 obj: + 13 x_1 + 24 x_2 + 31 x_3 + 19 x_4 + 40 x_5 + 29 x_6 + 18 x_7
 + 25 x_8 + 30 x_9 + 15 x_10 + 43 x_11 + 22 x_12 + 20 x_13 + 20 x_14
 + 27 x_15 + 25 x_16 + 34 x_17 + 33 x_18 + 23 x_19 + 26 x_20 + 28 x_21
 + 18 x_22 + 37 x_23 + 30 x_24 + 28 x_25 + 33 x_26 + 34 x_27 + 17 x_28
 + 38 x_29 + 20 x_30 + 19 x_31 + 36 x_32 + 25 x_33 + 27 x_34 + 45 x_35
 + 24 x_36

Subject To
 r_1: + x_6 + x_5 + x_4 + x_3 + x_2 + x_1 = 1
 r_2: + x_12 + x_11 + x_10 + x_9 + x_8 + x_7 = 1
 r_3: + x_18 + x_17 + x_16 + x_15 + x_14 + x_13 = 1
 r_4: + x_24 + x_23 + x_22 + x_21 + x_20 + x_19 = 1
 r_5: + x_30 + x_29 + x_28 + x_27 + x_26 + x_25 = 1
 r_6: + x_36 + x_35 + x_34 + x_33 + x_32 + x_31 = 1
 r_7: + x_31 + x_25 + x_19 + x_13 + x_7 + x_1 = 1
 r_8: + x_32 + x_26 + x_20 + x_14 + x_8 + x_2 = 1
 r_9: + x_33 + x_27 + x_21 + x_15 + x_9 + x_3 = 1
 r_10: + x_34 + x_28 + x_22 + x_16 + x_10 + x_4 = 1
 r_11: + x_35 + x_29 + x_23 + x_17 + x_11 + x_5 = 1
 r_12: + x_36 + x_30 + x_24 + x_18 + x_12 + x_6 = 1

Bounds
 0 <= x_1 <= 1
 0 <= x_2 <= 1
 0 <= x_3 <= 1
 0 <= x_4 <= 1
 0 <= x_5 <= 1
 0 <= x_6 <= 1
 0 <= x_7 <= 1
 0 <= x_8 <= 1
 0 <= x_9 <= 1
 0 <= x_10 <= 1
 0 <= x_11 <= 1
 0 <= x_12 <= 1
 0 <= x_13 <= 1
 0 <= x_14 <= 1
 0 <= x_15 <= 1
 0 <= x_16 <= 1
 0 <= x_17 <= 1
 0 <= x_18 <= 1
 0 <= x_19 <= 1
 0 <= x_20 <= 1
 0 <= x_21 <= 1
 0 <= x_22 <= 1
 0 <= x_23 <= 1
 0 <= x_24 <= 1
 0 <= x_25 <= 1
 0 <= x_26 <= 1
 0 <= x_27 <= 1
 0 <= x_28 <= 1
 0 <= x_29 <= 1
 0 <= x_30 <= 1
 0 <= x_31 <= 1
 0 <= x_32 <= 1
 0 <= x_33 <= 1
 0 <= x_34 <= 1
 0 <= x_35 <= 1
 0 <= x_36 <= 1

Generals
 x_1
 x_2
 x_3
 x_4
 x_5
 x_6
 x_7
 x_8
 x_9
 x_10
 x_11
 x_12
 x_13
 x_14
 x_15
 x_16
 x_17
 x_18
 x_19
 x_20
 x_21
 x_22
 x_23
 x_24
 x_25
 x_26
 x_27
 x_28
 x_29
 x_30
 x_31
 x_32
 x_33
 x_34
 x_35
 x_36

End
